sat
(:SPACER-cex-depth                    2
 :SPACER-inductive-gen                1
 :SPACER-inductive-gen-weaken-fail    1
 :SPACER-inductive-gen-weaken-success 1
 :SPACER-max-depth                    2
 :SPACER-max-query-lvl                2
 :SPACER-num-active-lemmas            2
 :SPACER-num-is_invariant             2
 :SPACER-num-lemmas                   3
 :SPACER-num-pobs                     2
 :SPACER-num-queries                  2
 :SPACER-num-reach-queries            2
 :SPACER-num-reuse-reach-facts        1
 :added-eqs                           176
 :arith-assert-diseq                  24
 :arith-assert-lower                  112
 :arith-assert-upper                  110
 :arith-bound-prop                    10
 :arith-conflicts                     6
 :arith-eq-adapter                    52
 :arith-fixed-eqs                     38
 :arith-num-rows                      24
 :arith-pivots                        44
 :arith-row-summations                56
 :arith-tableau-max-columns           72
 :arith-tableau-max-rows              24
 :conflicts                           24
 :decisions                           78
 :del-clause                          42
 :final-checks                        12
 :iuc_solver.num_proxies              5
 :max-memory                          30.24
 :memory                              30.24
 :mk-bool-var                         326
 :mk-clause                           324
 :num-allocs                          4369399
 :num-checks                          26
 :pool_solver.checks                  13
 :pool_solver.checks.sat              6
 :propagations                        390
 :rlimit-count                        5283
 :time                                0.02
 :time.pool_solver.smt.total          0.00
 :time.pool_solver.smt.total.sat      0.00
 :time.spacer.init_rules              0.00
 :time.spacer.solve                   0.01
 :time.spacer.solve.propagate         0.00
 :time.spacer.solve.reach             0.01)
(:max-memory   30.24
 :memory       30.24
 :num-allocs   4369399
 :rlimit-count 5283
 :time         0.02
 :total-time   0.04)
